<number of tasks>
58

<cycle time>
65

<task times>
1 10
2 53
3 41
4 36
5 35
6 17
7 34
8 23
9 14
10 52
11 33
12 34
13 12
14 52
15 12
16 33
17 44
18 7
19 15
20 13
21 29
22 37
23 43
24 23
25 24
26 9
27 16
28 12
29 26
30 22
31 51
32 47
33 34
34 23
35 12
36 52
37 12
38 33
39 44
40 7
41 15
42 13
43 29
44 37
45 43
46 23
47 24
48 9
49 16
50 12
51 26
52 12
53 52
54 12
55 33
56 44
57 7
58 15

<precedence relations>
1,9
2,25
3,21
3,22
4,10
5,36
6,23
6,24
7,43
8,44
9,11
11,13
11,14
11,15
12,17
13,17
14,17
15,17
16,18
17,20
18,19
19,23
20,21
20,25
21,26
21,44
22,27
23,31
24,31
25,38
26,29
27,30
28,32
28,33
29,31
30,34
31,36
32,45
33,35
34,36
35,43
36,37
36,38
37,39
37,40
37,41
38,52
39,43
40,43
41,42
42,43
43,45
44,45
45,46
45,48
45,49
46,47
46,50
47,51
48,55
49,58
50,58
51,52
52,53
53,54
54,55
54,56
55,57
56,57
57,58

<setup times forward>
1,2:5
1,3:8
1,4:2
1,5:4
1,6:3
1,7:9
1,8:8
1,10:7
1,12:3
1,18:3
1,19:9
1,22:7
1,23:1
1,27:9
1,28:5
1,30:1
1,32:9
1,33:3
1,34:2
1,35:6
2,1:5
2,3:3
2,4:7
2,5:9
2,6:2
2,7:14
2,8:3
2,9:5
2,10:12
2,11:5
2,12:2
2,13:2
2,14:8
2,15:8
2,16:5
2,17:3
2,18:8
2,19:14
2,20:3
2,21:9
2,22:12
2,23:6
2,24:5
2,25:8
2,26:5
2,27:14
2,29:12
2,30:6
2,31:1
2,32:14
2,33:8
2,34:3
2,35:1
2,36:15
2,37:15
2,39:3
2,40:3
2,41:14
2,42:3
2,43:7
2,44:3
2,45:3
2,46:1
2,48:8
2,49:3
2,50:12
3,1:8
3,2:3
3,4:10
3,5:12
3,6:5
3,7:17
3,9:8
3,10:15
3,11:8
3,12:5
3,13:5
3,14:11
3,15:11
3,16:8
3,17:6
3,18:11
3,19:17
3,20:6
3,21:12
3,22:15
3,23:9
3,24:8
3,25:11
3,28:3
3,32:17
3,33:11
3,35:2
4,1:2
4,2:7
4,3:10
4,5:2
4,6:5
4,7:7
4,8:10
4,9:2
4,10:5
4,11:2
4,12:5
4,13:5
4,14:1
4,15:1
4,16:2
4,17:4
4,18:1
4,19:7
4,20:4
4,21:2
4,22:5
4,23:1
4,24:2
4,25:1
4,26:2
4,27:7
4,28:7
4,29:5
4,30:1
4,31:8
4,32:7
4,33:1
4,34:4
4,35:8
4,36:8
4,37:8
4,38:8
4,39:10
4,40:10
4,41:7
4,42:10
4,44:4
4,45:4
4,46:8
4,47:7
4,48:1
4,49:4
4,50:5
4,51:7
4,52:7
4,53:7
4,55:1
4,57:1
4,58:1
5,1:4
5,2:9
5,3:12
5,4:2
5,6:7
5,7:5
5,8:12
5,9:4
5,10:3
5,11:4
5,12:7
5,13:7
5,14:1
5,15:1
5,16:4
5,17:6
5,18:1
5,19:5
5,20:6
5,22:3
5,23:3
5,24:4
5,25:1
5,26:4
5,27:5
5,28:9
5,29:3
5,30:3
5,31:10
5,32:5
5,33:1
5,34:6
5,35:10
5,36:6
5,44:6
6,1:3
6,2:2
6,3:5
6,4:5
6,5:7
6,7:12
6,8:5
6,9:3
6,10:10
6,11:3
6,14:6
6,15:6
6,16:3
6,17:1
6,18:6
6,19:12
6,20:1
6,21:7
6,22:10
6,23:4
6,24:3
6,25:6
6,26:3
6,27:12
6,28:2
6,29:10
6,30:4
6,32:12
6,33:6
6,34:1
6,35:3
6,44:1
7,1:9
7,2:14
7,3:17
7,4:7
7,5:5
7,6:12
7,8:17
7,9:9
7,10:2
7,11:9
7,12:12
7,13:12
7,14:6
7,15:6
7,16:9
7,17:11
7,18:6
7,20:11
7,21:5
7,22:2
7,23:8
7,24:9
7,25:6
7,26:9
7,28:14
7,29:2
7,30:8
7,31:15
7,33:6
7,34:11
7,35:15
7,36:1
7,37:1
7,38:15
7,39:17
7,40:17
7,42:17
7,43:7
7,44:11
8,1:8
8,2:3
8,4:10
8,5:12
8,6:5
8,7:17
8,9:8
8,10:15
8,11:8
8,12:5
8,13:5
8,14:11
8,15:11
8,16:8
8,17:6
8,18:11
8,19:17
8,20:6
8,21:12
8,22:15
8,23:9
8,24:8
8,25:11
8,26:8
8,27:17
8,28:3
8,29:15
8,30:9
8,31:2
8,32:17
8,33:11
8,34:6
8,35:2
8,36:18
8,37:18
8,38:2
8,41:17
8,43:10
8,44:6
9,2:5
9,3:8
9,4:2
9,5:4
9,6:3
9,7:9
9,8:8
9,10:7
9,12:3
9,18:3
9,19:9
9,22:7
9,23:1
9,27:9
9,28:5
9,30:1
9,32:9
9,33:3
9,34:2
9,35:6
10,1:7
10,2:12
10,3:15
10,5:3
10,6:10
10,7:2
10,8:15
10,9:7
10,11:7
10,12:10
10,13:10
10,14:4
10,15:4
10,16:7
10,17:9
10,18:4
10,19:2
10,20:9
10,21:3
10,23:6
10,24:7
10,25:4
10,26:7
10,27:2
10,28:12
10,30:6
10,31:13
10,32:2
10,33:4
10,34:9
10,35:13
10,36:3
10,37:3
10,38:13
10,39:15
10,40:15
10,41:2
10,42:15
10,43:5
10,44:9
10,45:9
10,46:13
10,47:12
10,48:4
10,49:9
10,51:12
10,52:12
10,53:12
10,54:5
10,55:4
10,56:5
10,57:4
10,58:4
11,2:5
11,3:8
11,4:2
11,5:4
11,6:3
11,7:9
11,8:8
11,10:7
11,12:3
11,13:3
11,14:3
11,15:3
11,18:3
11,19:9
11,22:7
11,23:1
11,27:9
11,28:5
11,30:1
11,32:9
11,33:3
11,34:2
11,35:6
12,1:3
12,2:2
12,3:5
12,4:5
12,5:7
12,7:12
12,8:5
12,9:3
12,10:10
12,11:3
12,14:6
12,15:6
12,16:3
12,17:1
12,18:6
12,19:12
12,22:10
12,23:4
12,24:3
12,27:12
12,28:2
12,30:4
12,32:12
12,33:6
12,34:1
12,35:3
13,2:2
13,3:5
13,4:5
13,5:7
13,7:12
13,8:5
13,10:10
13,14:6
13,15:6
13,16:3
13,17:1
13,18:6
13,19:12
13,22:10
13,23:4
13,24:3
13,27:12
13,28:2
13,30:4
13,32:12
13,33:6
13,34:1
13,35:3
14,2:8
14,3:11
14,4:1
14,5:1
14,6:6
14,7:6
14,8:11
14,10:4
14,12:6
14,13:6
14,16:3
14,17:5
14,19:6
14,22:4
14,23:2
14,24:3
14,27:6
14,28:8
14,30:2
14,32:6
14,34:5
14,35:9
15,2:8
15,3:11
15,4:1
15,5:1
15,6:6
15,7:6
15,8:11
15,10:4
15,12:6
15,13:6
15,16:3
15,17:5
15,19:6
15,22:4
15,23:2
15,24:3
15,27:6
15,28:8
15,30:2
15,32:6
15,34:5
15,35:9
16,2:5
16,3:8
16,4:2
16,5:4
16,6:3
16,7:9
16,8:8
16,10:7
16,12:3
16,13:3
16,14:3
16,15:3
16,17:2
16,18:3
16,20:2
16,21:4
16,22:7
16,25:3
16,27:9
16,28:5
16,29:7
16,30:1
16,32:9
16,33:3
16,34:2
16,35:6
16,44:2
17,2:3
17,3:6
17,4:4
17,5:6
17,6:1
17,7:11
17,8:6
17,10:9
17,16:2
17,18:5
17,19:11
17,22:9
17,23:3
17,24:2
17,27:11
17,28:3
17,30:3
17,32:11
17,33:5
17,35:4
18,1:3
18,2:8
18,3:11
18,4:1
18,5:1
18,6:6
18,7:6
18,8:11
18,9:3
18,10:4
18,11:3
18,12:6
18,13:6
18,17:5
18,19:6
18,20:5
18,21:1
18,22:4
18,24:3
18,26:3
18,27:6
18,28:8
18,29:4
18,30:2
18,32:6
18,34:5
18,35:9
18,44:5
19,1:9
19,2:14
19,3:17
19,4:7
19,5:5
19,6:12
19,8:17
19,9:9
19,10:2
19,11:9
19,12:12
19,13:12
19,14:6
19,15:6
19,17:11
19,20:11
19,21:5
19,22:2
19,23:8
19,24:9
19,25:6
19,26:9
19,28:14
19,29:2
19,30:8
19,33:6
19,34:11
19,35:15
19,44:11
20,2:3
20,3:6
20,4:4
20,5:6
20,6:1
20,7:11
20,8:6
20,10:9
20,16:2
20,18:5
20,19:11
20,21:6
20,22:9
20,23:3
20,24:2
20,25:5
20,27:11
20,28:3
20,30:3
20,32:11
20,33:5
20,35:4
21,2:9
21,4:2
21,6:7
21,7:5
21,8:12
21,10:3
21,16:4
21,18:1
21,19:5
21,22:3
21,23:3
21,24:4
21,25:1
21,26:4
21,27:5
21,28:9
21,30:3
21,32:5
21,33:1
21,34:6
21,35:10
21,44:6
22,1:7
22,2:12
22,4:5
22,5:3
22,6:10
22,7:2
22,8:15
22,9:7
22,11:7
22,12:10
22,13:10
22,14:4
22,15:4
22,16:7
22,17:9
22,18:4
22,19:2
22,20:9
22,21:3
22,23:6
22,24:7
22,25:4
22,26:7
22,27:2
22,28:12
22,31:13
22,32:2
22,33:4
22,35:13
22,44:9
23,1:1
23,2:6
23,3:9
23,4:1
23,5:3
23,7:8
23,8:9
23,9:1
23,10:6
23,11:1
23,12:4
23,13:4
23,14:2
23,15:2
23,17:3
23,20:3
23,21:3
23,22:6
23,24:1
23,25:2
23,26:1
23,27:8
23,28:6
23,29:6
23,31:7
23,32:8
23,33:2
23,34:3
23,35:7
23,44:3
24,2:5
24,3:8
24,4:2
24,5:4
24,7:9
24,8:8
24,10:7
24,12:3
24,13:3
24,14:3
24,15:3
24,17:2
24,18:3
24,19:9
24,20:2
24,21:4
24,22:7
24,23:1
24,25:3
24,27:9
24,28:5
24,29:7
24,30:1
24,31:6
24,32:9
24,33:3
24,34:2
24,35:6
24,44:2
25,3:11
25,4:1
25,5:1
25,6:6
25,7:6
25,8:11
25,10:4
25,16:3
25,19:6
25,21:1
25,22:4
25,23:2
25,24:3
25,26:3
25,27:6
25,28:8
25,29:4
25,30:2
25,31:9
25,32:6
25,34:5
25,35:9
25,36:7
25,37:7
25,38:9
25,39:11
25,40:11
25,41:6
25,42:11
25,43:1
25,44:5
25,45:5
25,46:9
25,47:8
25,49:5
25,50:4
25,51:8
26,2:5
26,4:2
26,5:4
26,6:3
26,7:9
26,8:8
26,10:7
26,18:3
26,19:9
26,22:7
26,23:1
26,25:3
26,27:9
26,28:5
26,29:7
26,30:1
26,32:9
26,33:3
26,34:2
26,35:6
26,44:2
27,1:9
27,2:14
27,4:7
27,5:5
27,6:12
27,8:17
27,9:9
27,10:2
27,11:9
27,12:12
27,13:12
27,14:6
27,15:6
27,16:9
27,17:11
27,18:6
27,20:11
27,21:5
27,23:8
27,24:9
27,25:6
27,26:9
27,28:14
27,29:2
27,30:8
27,31:15
27,33:6
27,35:15
27,44:11
28,1:5
28,3:3
28,4:7
28,5:9
28,6:2
28,7:14
28,8:3
28,9:5
28,10:12
28,11:5
28,12:2
28,13:2
28,14:8
28,15:8
28,16:5
28,17:3
28,18:8
28,19:14
28,20:3
28,21:9
28,22:12
28,23:6
28,24:5
28,25:8
28,26:5
28,27:14
28,29:12
28,30:6
28,31:1
28,32:14
28,33:8
28,34:3
28,36:15
28,37:15
28,38:1
28,39:3
28,40:3
28,41:14
28,42:3
28,44:3
29,2:12
29,4:5
29,5:3
29,6:10
29,7:2
29,8:15
29,16:7
29,18:4
29,19:2
29,23:6
29,24:7
29,25:4
29,27:2
29,28:12
29,30:6
29,31:13
29,32:2
29,33:4
29,34:9
29,35:13
29,44:9
30,1:1
30,2:6
30,4:1
30,5:3
30,6:4
30,7:8
30,8:9
30,9:1
30,10:6
30,11:1
30,12:4
30,13:4
30,14:2
30,15:2
30,16:1
30,17:3
30,18:2
30,19:8
30,20:3
30,21:3
30,24:1
30,25:2
30,26:1
30,28:6
30,29:6
30,31:7
30,32:8
30,33:2
30,34:3
30,35:7
30,44:3
31,2:1
31,4:8
31,5:10
31,7:15
31,8:2
31,10:13
31,22:13
31,25:9
31,27:15
31,28:1
31,30:7
31,32:15
31,33:9
31,34:4
31,36:16
31,44:4
32,1:9
32,2:14
32,3:17
32,4:7
32,5:5
32,6:12
32,8:17
32,9:9
32,10:2
32,11:9
32,12:12
32,13:12
32,14:6
32,15:6
32,16:9
32,17:11
32,18:6
32,20:11
32,21:5
32,22:2
32,23:8
32,24:9
32,25:6
32,26:9
32,29:2
32,30:8
32,31:15
32,33:6
32,34:11
32,35:15
32,36:1
32,37:1
32,38:15
32,39:17
32,40:17
32,42:17
32,43:7
32,44:11
32,45:11
33,1:3
33,2:8
33,3:11
33,4:1
33,5:1
33,6:6
33,7:6
33,8:11
33,9:3
33,10:4
33,11:3
33,12:6
33,13:6
33,16:3
33,17:5
33,19:6
33,20:5
33,21:1
33,22:4
33,23:2
33,24:3
33,26:3
33,27:6
33,29:4
33,30:2
33,31:9
33,32:6
33,34:5
33,35:9
33,36:7
33,37:7
33,38:9
33,39:11
33,40:11
33,41:6
33,42:11
33,44:5
34,1:2
34,2:3
34,4:4
34,5:6
34,6:1
34,7:11
34,8:6
34,9:2
34,10:9
34,11:2
34,12:1
34,13:1
34,14:5
34,15:5
34,16:2
34,18:5
34,19:11
34,21:6
34,23:3
34,24:2
34,25:5
34,26:2
34,28:3
34,29:9
34,31:4
34,32:11
34,33:5
34,35:4
34,36:12
35,1:6
35,2:1
35,3:2
35,4:8
35,5:10
35,6:3
35,7:15
35,8:2
35,9:6
35,10:13
35,11:6
35,12:3
35,13:3
35,14:9
35,15:9
35,16:6
35,17:4
35,18:9
35,19:15
35,20:4
35,21:10
35,22:13
35,23:7
35,24:6
35,25:9
35,26:6
35,27:15
35,29:13
35,30:7
35,32:15
35,34:4
35,36:16
35,37:16
35,39:2
35,40:2
35,41:15
35,42:2
35,43:8
35,44:4
36,2:15
36,4:8
36,7:1
36,8:18
36,10:3
36,25:7
36,28:15
36,32:1
36,33:7
36,35:16
36,38:16
36,44:12
37,2:15
37,4:8
37,7:1
37,8:18
37,10:3
37,25:7
37,28:15
37,32:1
37,33:7
37,35:16
37,38:16
37,39:18
37,40:18
37,41:1
37,44:12
38,4:8
38,7:15
38,8:2
38,10:13
38,28:1
38,32:15
38,33:9
38,37:16
38,39:2
38,40:2
38,41:15
38,42:2
38,43:8
38,44:4
38,45:4
38,47:1
38,48:9
38,49:4
38,50:13
38,51:1
38,52:1
39,2:3
39,4:10
39,7:17
39,10:15
39,25:11
39,28:3
39,32:17
39,33:11
39,35:2
39,38:2
39,41:17
39,43:10
39,44:6
40,2:3
40,4:10
40,7:17
40,10:15
40,25:11
40,28:3
40,32:17
40,33:11
40,35:2
40,38:2
40,41:17
40,43:10
40,44:6
41,2:14
41,4:7
41,8:17
41,10:2
41,25:6
41,28:14
41,33:6
41,35:15
41,38:15
41,39:17
41,40:17
41,42:17
41,44:11
42,2:3
42,4:10
42,7:17
42,10:15
42,25:11
42,28:3
42,32:17
42,33:11
42,35:2
42,38:2
42,43:10
42,44:6
43,2:7
43,8:10
43,10:5
43,25:1
43,32:7
43,38:8
43,44:4
43,45:4
44,2:3
44,4:4
44,5:6
44,6:1
44,7:11
44,10:9
44,16:2
44,18:5
44,19:11
44,22:9
44,23:3
44,24:2
44,25:5
44,26:2
44,27:11
44,28:3
44,29:9
44,30:3
44,31:4
44,32:11
44,33:5
44,35:4
44,36:12
44,37:12
44,38:4
44,39:6
44,40:6
44,41:11
44,42:6
44,43:4
45,2:3
45,4:4
45,10:9
45,25:5
45,38:4
45,46:4
45,48:5
46,2:1
46,4:8
46,10:13
46,25:9
46,47:1
46,48:9
46,49:4
46,50:13
47,4:7
47,10:12
47,25:8
47,38:1
47,48:8
47,49:3
47,50:12
48,2:8
48,4:1
48,10:4
48,38:9
48,46:9
48,47:8
48,49:5
48,50:4
48,51:8
48,52:8
48,53:8
48,54:1
48,56:1
49,2:3
49,4:4
49,10:9
49,25:5
49,38:4
49,46:4
49,47:3
49,48:5
49,50:9
49,51:3
49,52:3
49,53:3
49,54:4
49,55:5
49,56:4
49,57:5
49,58:5
50,2:12
50,4:5
50,25:4
50,38:13
50,47:12
50,48:4
50,49:9
50,51:12
50,52:12
50,53:12
50,54:5
50,55:4
50,56:5
50,57:4
50,58:4
51,4:7
51,10:12
51,25:8
51,38:1
51,48:8
51,49:3
51,50:12
52,4:7
52,10:12
52,48:8
52,49:3
52,50:12
53,4:7
53,10:12
53,48:8
53,49:3
53,50:12
53,54:7
54,10:5
54,48:1
54,49:4
54,50:5
54,55:1
55,4:1
55,10:4
55,49:5
55,50:4
55,56:1
56,10:5
56,48:1
56,49:4
56,50:5
56,55:1
56,57:1
57,4:1
57,10:4
57,49:5
57,50:4
58,4:1
58,10:4

<setup times backward>
1,4:2
1,5:4
1,7:9
1,10:7
1,18:3
1,19:9
1,22:7
1,23:1
1,27:9
1,30:1
1,32:9
1,33:3
2,1:5
2,4:7
2,5:9
2,6:2
2,7:14
2,9:5
2,10:12
2,11:5
2,12:2
2,13:2
2,14:8
2,15:8
2,16:5
2,17:3
2,18:8
2,19:14
2,20:3
2,21:9
2,22:12
2,23:6
2,24:5
2,26:5
2,27:14
2,29:12
2,30:6
2,32:14
2,33:8
2,34:3
2,36:15
2,37:15
2,41:14
2,43:7
2,44:3
2,45:3
2,48:8
2,49:3
2,50:12
3,1:8
3,2:3
3,4:10
3,5:12
3,6:5
3,7:17
3,9:8
3,10:15
3,11:8
3,12:5
3,13:5
3,14:11
3,15:11
3,16:8
3,17:6
3,18:11
3,19:17
3,20:6
3,23:9
3,24:8
3,25:11
3,28:3
3,32:17
3,33:11
3,35:2
4,5:2
4,7:7
4,14:1
4,15:1
4,18:1
4,19:7
4,21:2
4,22:5
4,25:1
4,27:7
4,29:5
4,32:7
4,33:1
4,36:8
4,37:8
4,41:7
4,48:1
4,50:5
4,55:1
4,57:1
4,58:1
5,7:5
5,10:3
5,19:5
5,22:3
5,27:5
5,29:3
5,32:5
6,1:3
6,4:5
6,5:7
6,7:12
6,9:3
6,10:10
6,11:3
6,14:6
6,15:6
6,16:3
6,17:1
6,18:6
6,19:12
6,20:1
6,21:7
6,22:10
6,25:6
6,26:3
6,27:12
6,29:10
6,30:4
6,32:12
6,33:6
6,34:1
6,44:1
7,36:1
7,37:1
8,1:8
8,2:3
8,4:10
8,5:12
8,6:5
8,7:17
8,9:8
8,10:15
8,11:8
8,12:5
8,13:5
8,14:11
8,15:11
8,16:8
8,17:6
8,18:11
8,19:17
8,20:6
8,21:12
8,22:15
8,23:9
8,24:8
8,25:11
8,26:8
8,27:17
8,28:3
8,29:15
8,30:9
8,31:2
8,32:17
8,33:11
8,34:6
8,35:2
8,36:18
8,37:18
8,38:2
8,41:17
8,43:10
9,4:2
9,5:4
9,7:9
9,10:7
9,18:3
9,19:9
9,22:7
9,23:1
9,27:9
9,30:1
9,32:9
9,33:3
10,7:2
10,19:2
10,27:2
10,32:2
10,36:3
10,37:3
10,41:2
11,4:2
11,5:4
11,7:9
11,10:7
11,18:3
11,19:9
11,22:7
11,23:1
11,27:9
11,30:1
11,32:9
11,33:3
12,1:3
12,4:5
12,5:7
12,7:12
12,9:3
12,10:10
12,11:3
12,14:6
12,15:6
12,16:3
12,18:6
12,19:12
12,22:10
12,23:4
12,24:3
12,27:12
12,30:4
12,32:12
12,33:6
12,34:1
13,1:3
13,4:5
13,5:7
13,7:12
13,9:3
13,10:10
13,11:3
13,14:6
13,15:6
13,16:3
13,18:6
13,19:12
13,22:10
13,23:4
13,24:3
13,27:12
13,30:4
13,32:12
13,33:6
13,34:1
14,5:1
14,7:6
14,10:4
14,19:6
14,22:4
14,27:6
14,32:6
15,5:1
15,7:6
15,10:4
15,19:6
15,22:4
15,27:6
15,32:6
16,4:2
16,5:4
16,7:9
16,10:7
16,14:3
16,15:3
16,21:4
16,22:7
16,25:3
16,27:9
16,29:7
16,30:1
16,32:9
16,33:3
17,1:2
17,4:4
17,5:6
17,7:11
17,9:2
17,10:9
17,11:2
17,14:5
17,15:5
17,16:2
17,18:5
17,19:11
17,22:9
17,23:3
17,24:2
17,27:11
17,30:3
17,32:11
17,33:5
18,5:1
18,7:6
18,10:4
18,21:1
18,22:4
18,27:6
18,29:4
18,32:6
20,1:2
20,4:4
20,5:6
20,7:11
20,9:2
20,10:9
20,11:2
20,14:5
20,15:5
20,16:2
20,18:5
20,19:11
20,22:9
20,23:3
20,24:2
20,27:11
20,30:3
20,32:11
20,33:5
21,7:5
21,10:3
21,19:5
21,22:3
21,27:5
21,32:5
22,7:2
22,19:2
22,32:2
23,4:1
23,5:3
23,7:8
23,10:6
23,14:2
23,15:2
23,18:2
23,19:8
23,21:3
23,22:6
23,25:2
23,27:8
23,29:6
23,32:8
23,33:2
24,4:2
24,5:4
24,7:9
24,10:7
24,14:3
24,15:3
24,18:3
24,19:9
24,21:4
24,22:7
24,23:1
24,25:3
24,27:9
24,29:7
24,30:1
24,32:9
24,33:3
25,5:1
25,7:6
25,10:4
25,19:6
25,21:1
25,22:4
25,27:6
25,29:4
25,32:6
25,36:7
25,37:7
25,41:6
25,50:4
26,4:2
26,5:4
26,7:9
26,10:7
26,14:3
26,15:3
26,18:3
26,19:9
26,21:4
26,22:7
26,23:1
26,25:3
26,27:9
26,30:1
26,32:9
26,33:3
28,1:5
28,4:7
28,5:9
28,6:2
28,7:14
28,9:5
28,10:12
28,11:5
28,12:2
28,13:2
28,14:8
28,15:8
28,16:5
28,17:3
28,18:8
28,19:14
28,20:3
28,21:9
28,22:12
28,23:6
28,24:5
28,25:8
28,26:5
28,27:14
28,29:12
28,30:6
28,34:3
28,36:15
28,37:15
28,41:14
28,44:3
29,7:2
29,19:2
29,27:2
29,32:2
30,4:1
30,5:3
30,7:8
30,10:6
30,14:2
30,15:2
30,18:2
30,19:8
30,21:3
30,22:6
30,25:2
30,27:8
30,29:6
30,32:8
30,33:2
31,1:6
31,2:1
31,4:8
31,5:10
31,6:3
31,7:15
31,9:6
31,10:13
31,11:6
31,12:3
31,13:3
31,14:9
31,15:9
31,16:6
31,17:4
31,18:9
31,19:15
31,20:4
31,21:10
31,22:13
31,23:7
31,24:6
31,25:9
31,26:6
31,27:15
31,28:1
31,29:13
31,30:7
31,32:15
31,33:9
31,34:4
31,44:4
32,36:1
32,37:1
33,5:1
33,7:6
33,10:4
33,19:6
33,21:1
33,22:4
33,27:6
33,29:4
33,32:6
33,36:7
33,37:7
33,41:6
34,1:2
34,4:4
34,5:6
34,7:11
34,9:2
34,10:9
34,11:2
34,14:5
34,15:5
34,16:2
34,18:5
34,19:11
34,21:6
34,22:9
34,23:3
34,24:2
34,25:5
34,26:2
34,27:11
34,29:9
34,30:3
34,32:11
34,33:5
35,1:6
35,2:1
35,4:8
35,5:10
35,6:3
35,7:15
35,9:6
35,10:13
35,11:6
35,12:3
35,13:3
35,14:9
35,15:9
35,16:6
35,17:4
35,18:9
35,19:15
35,20:4
35,21:10
35,22:13
35,23:7
35,24:6
35,25:9
35,26:6
35,27:15
35,28:1
35,29:13
35,30:7
35,32:15
35,33:9
35,34:4
35,36:16
35,37:16
35,41:15
35,44:4
38,1:6
38,2:1
38,4:8
38,5:10
38,6:3
38,7:15
38,9:6
38,10:13
38,11:6
38,12:3
38,13:3
38,14:9
38,15:9
38,16:6
38,17:4
38,18:9
38,19:15
38,20:4
38,21:10
38,22:13
38,23:7
38,24:6
38,25:9
38,26:6
38,27:15
38,28:1
38,29:13
38,30:7
38,32:15
38,33:9
38,34:4
38,36:16
38,37:16
38,41:15
38,43:8
38,44:4
38,45:4
38,47:1
38,48:9
38,49:4
38,50:13
38,51:1
39,1:8
39,2:3
39,4:10
39,5:12
39,6:5
39,7:17
39,9:8
39,10:15
39,11:8
39,12:5
39,13:5
39,14:11
39,15:11
39,16:8
39,17:6
39,18:11
39,19:17
39,20:6
39,21:12
39,22:15
39,23:9
39,24:8
39,25:11
39,26:8
39,27:17
39,28:3
39,29:15
39,30:9
39,31:2
39,32:17
39,33:11
39,34:6
39,35:2
39,36:18
39,37:18
39,38:2
39,41:17
39,44:6
40,1:8
40,2:3
40,4:10
40,5:12
40,6:5
40,7:17
40,9:8
40,10:15
40,11:8
40,12:5
40,13:5
40,14:11
40,15:11
40,16:8
40,17:6
40,18:11
40,19:17
40,20:6
40,21:12
40,22:15
40,23:9
40,24:8
40,25:11
40,26:8
40,27:17
40,28:3
40,29:15
40,30:9
40,31:2
40,32:17
40,33:11
40,34:6
40,35:2
40,36:18
40,37:18
40,38:2
40,41:17
40,44:6
41,36:1
41,37:1
42,1:8
42,2:3
42,4:10
42,5:12
42,6:5
42,7:17
42,9:8
42,10:15
42,11:8
42,12:5
42,13:5
42,14:11
42,15:11
42,16:8
42,17:6
42,18:11
42,19:17
42,20:6
42,21:12
42,22:15
42,23:9
42,24:8
42,25:11
42,26:8
42,27:17
42,28:3
42,29:15
42,30:9
42,31:2
42,32:17
42,33:11
42,34:6
42,35:2
42,36:18
42,37:18
42,38:2
42,41:17
42,44:6
43,5:2
43,7:7
43,10:5
43,14:1
43,15:1
43,18:1
43,19:7
43,21:2
43,22:5
43,25:1
43,27:7
43,29:5
43,32:7
43,33:1
43,36:8
43,37:8
43,41:7
44,1:2
44,4:4
44,5:6
44,7:11
44,9:2
44,10:9
44,11:2
44,14:5
44,15:5
44,16:2
44,18:5
44,19:11
44,21:6
44,22:9
44,23:3
44,24:2
44,25:5
44,26:2
44,27:11
44,29:9
44,30:3
44,32:11
44,33:5
44,36:12
44,37:12
44,41:11
44,43:4
45,1:2
45,4:4
45,5:6
45,7:11
45,9:2
45,10:9
45,11:2
45,14:5
45,15:5
45,16:2
45,18:5
45,19:11
45,21:6
45,22:9
45,23:3
45,24:2
45,25:5
45,26:2
45,27:11
45,29:9
45,30:3
45,32:11
45,33:5
45,36:12
45,37:12
45,41:11
45,43:4
46,1:6
46,2:1
46,4:8
46,5:10
46,6:3
46,7:15
46,9:6
46,10:13
46,11:6
46,12:3
46,13:3
46,14:9
46,15:9
46,16:6
46,17:4
46,18:9
46,19:15
46,20:4
46,21:10
46,22:13
46,23:7
46,24:6
46,25:9
46,26:6
46,27:15
46,28:1
46,29:13
46,30:7
46,32:15
46,33:9
46,34:4
46,36:16
46,37:16
46,41:15
46,43:8
46,44:4
46,45:4
46,48:9
46,49:4
47,1:5
47,4:7
47,5:9
47,6:2
47,7:14
47,9:5
47,10:12
47,11:5
47,12:2
47,13:2
47,14:8
47,15:8
47,16:5
47,17:3
47,18:8
47,19:14
47,20:3
47,21:9
47,22:12
47,23:6
47,24:5
47,25:8
47,26:5
47,27:14
47,29:12
47,30:6
47,32:14
47,33:8
47,34:3
47,36:15
47,37:15
47,41:14
47,43:7
47,44:3
47,45:3
47,48:8
47,49:3
47,50:12
48,5:1
48,7:6
48,10:4
48,19:6
48,21:1
48,22:4
48,27:6
48,29:4
48,32:6
48,36:7
48,37:7
48,41:6
48,50:4
49,1:2
49,4:4
49,5:6
49,7:11
49,9:2
49,10:9
49,11:2
49,14:5
49,15:5
49,16:2
49,18:5
49,19:11
49,21:6
49,22:9
49,23:3
49,24:2
49,25:5
49,26:2
49,27:11
49,29:9
49,30:3
49,32:11
49,33:5
49,36:12
49,37:12
49,41:11
49,43:4
49,48:5
49,50:9
49,54:4
49,55:5
49,56:4
49,57:5
50,7:2
50,19:2
50,27:2
50,32:2
50,36:3
50,37:3
50,41:2
51,1:5
51,4:7
51,5:9
51,6:2
51,7:14
51,9:5
51,10:12
51,11:5
51,12:2
51,13:2
51,14:8
51,15:8
51,16:5
51,17:3
51,18:8
51,19:14
51,20:3
51,21:9
51,22:12
51,23:6
51,24:5
51,25:8
51,26:5
51,27:14
51,29:12
51,30:6
51,32:14
51,33:8
51,34:3
51,36:15
51,37:15
51,41:14
51,43:7
51,44:3
51,45:3
51,48:8
51,49:3
51,50:12
52,1:5
52,4:7
52,5:9
52,6:2
52,7:14
52,9:5
52,10:12
52,11:5
52,12:2
52,13:2
52,14:8
52,15:8
52,16:5
52,17:3
52,18:8
52,19:14
52,20:3
52,21:9
52,22:12
52,23:6
52,24:5
52,25:8
52,26:5
52,27:14
52,29:12
52,30:6
52,32:14
52,33:8
52,34:3
52,36:15
52,37:15
52,41:14
52,43:7
52,44:3
52,45:3
52,48:8
52,49:3
52,50:12
53,1:5
53,4:7
53,5:9
53,6:2
53,7:14
53,9:5
53,10:12
53,11:5
53,12:2
53,13:2
53,14:8
53,15:8
53,16:5
53,17:3
53,18:8
53,19:14
53,20:3
53,21:9
53,22:12
53,23:6
53,24:5
53,25:8
53,26:5
53,27:14
53,29:12
53,30:6
53,32:14
53,33:8
53,34:3
53,36:15
53,37:15
53,41:14
53,43:7
53,44:3
53,45:3
53,48:8
53,49:3
53,50:12
54,5:2
54,7:7
54,10:5
54,14:1
54,15:1
54,18:1
54,19:7
54,21:2
54,22:5
54,25:1
54,27:7
54,29:5
54,32:7
54,33:1
54,36:8
54,37:8
54,41:7
54,48:1
54,50:5
55,5:1
55,7:6
55,10:4
55,19:6
55,21:1
55,22:4
55,27:6
55,29:4
55,32:6
55,36:7
55,37:7
55,41:6
55,50:4
56,5:2
56,7:7
56,10:5
56,14:1
56,15:1
56,18:1
56,19:7
56,21:2
56,22:5
56,25:1
56,27:7
56,29:5
56,32:7
56,33:1
56,36:8
56,37:8
56,41:7
56,48:1
56,50:5
56,55:1
57,5:1
57,7:6
57,10:4
57,19:6
57,21:1
57,22:4
57,27:6
57,29:4
57,32:6
57,36:7
57,37:7
57,41:6
57,50:4
58,5:1
58,7:6
58,10:4
58,19:6
58,21:1
58,22:4
58,27:6
58,29:4
58,32:6
58,36:7
58,37:7
58,41:6
58,50:4

<end>

<optimal SALBP-1 value>
25


<rand seed>
467321153

